% seed = 3502551

mint = 60;
% maxt = 221;

nActs = 42;
dur = [0,9,3,3,7,7,5,1,9,9,6,10,1,1,6,8,6,6,4,4,3,2,4,7,1,2,4,5,5,6,9,9,4,1,10,4,9,8,10,6,7,0];

nSkills = 4;
sreq = [| 0,0,0,0,
	| 0,3,3,2,
	| 4,0,6,3,
	| 0,3,5,6,
	| 0,4,7,3,
	| 4,2,0,6,
	| 0,5,2,2,
	| 4,0,6,2,
	| 3,2,4,0,
	| 2,7,0,7,
	| 3,3,7,0,
	| 4,2,5,0,
	| 0,4,5,4,
	| 1,3,5,0,
	| 6,7,7,0,
	| 4,6,5,0,
	| 7,4,3,0,
	| 3,0,3,1,
	| 3,0,2,7,
	| 0,2,7,3,
	| 5,2,0,1,
	| 1,3,3,0,
	| 2,2,0,2,
	| 4,0,5,5,
	| 3,0,5,7,
	| 4,0,4,4,
	| 5,6,1,0,
	| 3,3,0,2,
	| 0,3,3,3,
	| 4,4,5,0,
	| 6,6,6,0,
	| 4,2,6,0,
	| 2,3,0,4,
	| 0,2,7,7,
	| 2,7,6,0,
	| 5,0,3,5,
	| 3,0,3,3,
	| 0,3,5,6,
	| 7,3,6,0,
	| 3,0,2,4,
	| 0,2,5,5,
	| 0,0,0,0, |];

nResources = 45;
mastery = [| true,true,false,true,
	| false,false,true,false,
	| false,false,true,true,
	| false,false,true,false,
	| true,true,false,true,
	| true,false,true,false,
	| true,false,false,false,
	| true,true,false,false,
	| false,true,false,true,
	| true,true,true,false,
	| false,false,false,true,
	| false,true,true,true,
	| true,true,true,false,
	| true,true,true,false,
	| true,false,false,false,
	| true,false,false,false,
	| false,false,false,true,
	| false,false,true,false,
	| false,false,true,true,
	| false,false,false,true,
	| false,true,false,true,
	| true,true,true,false,
	| true,false,true,true,
	| true,false,true,true,
	| true,false,false,true,
	| false,false,true,false,
	| true,true,true,false,
	| true,true,false,true,
	| false,true,false,true,
	| true,false,true,false,
	| false,true,false,false,
	| false,false,true,false,
	| false,true,false,false,
	| false,true,false,true,
	| false,true,false,false,
	| true,true,true,false,
	| false,true,true,false,
	| true,false,false,true,
	| true,false,true,true,
	| true,true,false,true,
	| true,true,false,true,
	| false,false,true,false,
	| false,false,false,true,
	| false,true,true,true,
	| false,false,true,false, |];

nPrecs = 73;
pred = [1,1,1,2,2,2,3,4,4,4,5,6,6,6,7,7,7,8,8,9,10,10,10,11,11,11,12,12,13,13,14,14,14,15,15,15,16,16,17,17,18,18,19,20,20,20,21,22,22,23,23,24,25,25,26,27,28,29,30,31,32,33,33,34,35,35,36,37,37,38,39,40,41];
succ = [2,3,4,12,6,14,11,17,5,8,7,10,28,13,9,37,38,33,26,36,32,15,24,35,23,16,19,23,21,31,18,27,29,19,20,22,25,29,33,40,21,32,27,34,21,30,33,35,38,25,30,25,27,39,28,28,36,30,36,35,37,41,38,37,41,39,40,41,40,39,42,42,42];

nUnrels = 506;
unpred = [2,2,2,2,2,2,2,2,2,2,3,3,3,3,3,3,3,3,3,3,3,3,3,3,3,3,3,3,3,3,3,3,3,3,3,4,4,4,4,4,4,4,4,4,4,4,4,4,4,4,4,4,4,4,4,4,4,4,5,5,5,5,5,5,5,5,5,5,5,5,5,5,5,5,5,5,5,5,5,5,5,5,5,5,5,5,6,6,6,6,6,6,6,6,6,6,6,6,7,7,7,7,7,7,7,7,7,7,7,7,7,7,7,7,7,7,7,7,7,7,7,7,7,7,7,8,8,8,8,8,8,8,8,8,8,8,8,8,8,8,8,8,8,8,8,8,8,8,8,8,9,9,9,9,9,9,9,9,9,9,9,9,9,9,9,9,9,9,9,9,9,9,9,9,9,9,9,9,9,9,10,10,10,10,10,10,10,10,10,10,10,11,11,11,11,11,11,11,11,11,11,11,11,11,11,11,11,11,11,12,12,12,12,12,12,12,12,12,12,12,12,12,12,12,12,12,12,12,12,13,13,13,13,13,13,13,13,13,13,13,13,13,13,13,13,13,13,13,13,13,14,14,14,14,14,14,14,14,14,14,14,14,14,15,15,15,15,15,15,15,15,15,15,16,16,16,16,16,16,16,16,16,16,16,16,16,16,16,16,16,17,17,17,17,17,17,17,17,17,17,17,17,17,17,17,17,17,17,17,18,18,18,18,18,18,18,18,18,18,18,18,18,18,18,19,19,19,19,19,19,19,19,19,19,19,19,19,19,19,19,19,19,20,20,20,20,20,20,20,20,20,20,20,21,21,21,21,21,21,21,21,21,21,21,21,21,21,21,21,22,22,22,22,22,22,22,22,22,22,22,22,22,22,22,23,23,23,23,23,23,23,23,23,23,23,24,24,24,24,24,24,24,24,24,24,24,25,25,25,25,25,25,25,25,25,25,25,26,26,26,26,26,26,26,26,26,26,26,26,27,27,27,27,27,27,27,27,27,27,27,28,28,28,28,28,28,28,28,28,28,28,29,29,29,29,29,29,29,29,29,30,30,30,30,30,30,30,30,30,31,31,31,31,31,31,31,32,32,32,32,32,32,33,33,33,33,33,34,34,34,34,35,35,35,35,36,36,36,36,37,37,38,38,39,39,40];
unsucc = [3,4,5,7,8,9,11,16,17,26,4,5,6,7,8,9,10,12,13,14,15,17,18,19,20,21,22,24,26,31,32,33,34,37,38,6,10,11,12,13,14,15,16,18,19,20,21,22,23,24,25,27,29,30,31,32,34,35,6,8,10,11,12,13,14,15,16,17,18,19,20,21,22,23,24,25,26,27,28,29,30,31,32,33,34,35,7,8,9,11,12,14,16,17,18,23,26,29,8,10,11,12,13,14,15,16,17,18,19,20,21,22,23,24,25,26,27,28,29,30,31,32,33,34,35,9,10,11,12,13,14,15,16,17,18,19,20,21,22,23,24,25,27,29,30,31,32,34,35,37,10,11,12,13,14,15,16,17,18,19,20,21,22,23,24,25,26,27,28,29,30,31,32,33,34,35,37,38,39,41,11,12,13,14,16,17,18,23,26,29,31,12,13,14,15,17,18,19,20,21,22,24,26,31,32,33,34,37,38,13,14,15,16,17,18,20,21,22,24,26,29,31,32,33,34,35,37,38,41,14,15,16,17,18,19,20,22,23,24,25,26,27,28,29,30,32,34,36,37,40,15,16,17,19,20,22,23,24,25,26,31,34,35,16,17,18,23,24,25,26,29,31,32,17,18,19,20,21,22,23,24,26,31,32,33,34,35,37,38,41,18,19,20,21,22,23,24,25,26,27,28,29,30,31,32,34,35,36,37,19,20,22,23,24,25,26,27,28,29,30,31,34,35,36,20,21,22,23,24,25,26,29,30,31,32,33,34,35,37,38,39,41,22,23,24,25,26,27,28,29,31,32,35,22,23,24,25,26,27,28,29,30,31,32,34,35,36,37,40,23,24,25,26,27,28,29,30,31,32,33,34,36,37,40,24,26,29,31,32,33,34,35,37,38,41,26,29,30,31,32,33,34,35,37,38,41,26,29,30,31,32,33,34,35,37,38,41,27,29,30,31,32,33,34,35,37,38,39,41,29,30,31,32,33,34,35,37,38,39,41,29,30,31,32,33,34,35,37,38,39,41,31,32,33,34,35,37,38,39,41,31,32,33,34,35,37,38,39,41,32,33,34,36,37,38,40,33,34,35,36,38,39,34,35,36,37,40,35,36,38,39,36,37,38,40,37,38,39,41,38,39,40,41,40,41,41];

USEFUL_RES = [{},
	{1,2,3,4,5,6,8,9,10,11,12,13,14,17,18,19,20,21,22,23,24,25,26,27,28,29,30,31,32,33,34,35,36,37,38,39,40,41,42,43,44,45},
	{1,2,3,4,5,6,7,8,9,10,11,12,13,14,15,16,17,18,19,20,21,22,23,24,25,26,27,28,29,30,32,34,36,37,38,39,40,41,42,43,44,45},
	{1,2,3,4,5,6,8,9,10,11,12,13,14,17,18,19,20,21,22,23,24,25,26,27,28,29,30,31,32,33,34,35,36,37,38,39,40,41,42,43,44,45},
	{1,2,3,4,5,6,8,9,10,11,12,13,14,17,18,19,20,21,22,23,24,25,26,27,28,29,30,31,32,33,34,35,36,37,38,39,40,41,42,43,44,45},
	{1,3,5,6,7,8,9,10,11,12,13,14,15,16,17,19,20,21,22,23,24,25,27,28,29,30,31,33,34,35,36,37,38,39,40,41,43,44},
	{1,2,3,4,5,6,8,9,10,11,12,13,14,17,18,19,20,21,22,23,24,25,26,27,28,29,30,31,32,33,34,35,36,37,38,39,40,41,42,43,44,45},
	{1,2,3,4,5,6,7,8,9,10,11,12,13,14,15,16,17,18,19,20,21,22,23,24,25,26,27,28,29,30,32,34,36,37,38,39,40,41,42,43,44,45},
	{1,2,3,4,5,6,7,8,9,10,12,13,14,15,16,18,19,21,22,23,24,25,26,27,28,29,30,31,32,33,34,35,36,37,38,39,40,41,42,44,45},
	{1,3,5,6,7,8,9,10,11,12,13,14,15,16,17,19,20,21,22,23,24,25,27,28,29,30,31,33,34,35,36,37,38,39,40,41,43,44},
	{1,2,3,4,5,6,7,8,9,10,12,13,14,15,16,18,19,21,22,23,24,25,26,27,28,29,30,31,32,33,34,35,36,37,38,39,40,41,42,44,45},
	{1,2,3,4,5,6,7,8,9,10,12,13,14,15,16,18,19,21,22,23,24,25,26,27,28,29,30,31,32,33,34,35,36,37,38,39,40,41,42,44,45},
	{1,2,3,4,5,6,8,9,10,11,12,13,14,17,18,19,20,21,22,23,24,25,26,27,28,29,30,31,32,33,34,35,36,37,38,39,40,41,42,43,44,45},
	{1,2,3,4,5,6,7,8,9,10,12,13,14,15,16,18,19,21,22,23,24,25,26,27,28,29,30,31,32,33,34,35,36,37,38,39,40,41,42,44,45},
	{1,2,3,4,5,6,7,8,9,10,12,13,14,15,16,18,19,21,22,23,24,25,26,27,28,29,30,31,32,33,34,35,36,37,38,39,40,41,42,44,45},
	{1,2,3,4,5,6,7,8,9,10,12,13,14,15,16,18,19,21,22,23,24,25,26,27,28,29,30,31,32,33,34,35,36,37,38,39,40,41,42,44,45},
	{1,2,3,4,5,6,7,8,9,10,12,13,14,15,16,18,19,21,22,23,24,25,26,27,28,29,30,31,32,33,34,35,36,37,38,39,40,41,42,44,45},
	{1,2,3,4,5,6,7,8,9,10,11,12,13,14,15,16,17,18,19,20,21,22,23,24,25,26,27,28,29,30,32,34,36,37,38,39,40,41,42,43,44,45},
	{1,2,3,4,5,6,7,8,9,10,11,12,13,14,15,16,17,18,19,20,21,22,23,24,25,26,27,28,29,30,32,34,36,37,38,39,40,41,42,43,44,45},
	{1,2,3,4,5,6,8,9,10,11,12,13,14,17,18,19,20,21,22,23,24,25,26,27,28,29,30,31,32,33,34,35,36,37,38,39,40,41,42,43,44,45},
	{1,3,5,6,7,8,9,10,11,12,13,14,15,16,17,19,20,21,22,23,24,25,27,28,29,30,31,33,34,35,36,37,38,39,40,41,43,44},
	{1,2,3,4,5,6,7,8,9,10,12,13,14,15,16,18,19,21,22,23,24,25,26,27,28,29,30,31,32,33,34,35,36,37,38,39,40,41,42,44,45},
	{1,3,5,6,7,8,9,10,11,12,13,14,15,16,17,19,20,21,22,23,24,25,27,28,29,30,31,33,34,35,36,37,38,39,40,41,43,44},
	{1,2,3,4,5,6,7,8,9,10,11,12,13,14,15,16,17,18,19,20,21,22,23,24,25,26,27,28,29,30,32,34,36,37,38,39,40,41,42,43,44,45},
	{1,2,3,4,5,6,7,8,9,10,11,12,13,14,15,16,17,18,19,20,21,22,23,24,25,26,27,28,29,30,32,34,36,37,38,39,40,41,42,43,44,45},
	{1,2,3,4,5,6,7,8,9,10,11,12,13,14,15,16,17,18,19,20,21,22,23,24,25,26,27,28,29,30,32,34,36,37,38,39,40,41,42,43,44,45},
	{1,2,3,4,5,6,7,8,9,10,12,13,14,15,16,18,19,21,22,23,24,25,26,27,28,29,30,31,32,33,34,35,36,37,38,39,40,41,42,44,45},
	{1,3,5,6,7,8,9,10,11,12,13,14,15,16,17,19,20,21,22,23,24,25,27,28,29,30,31,33,34,35,36,37,38,39,40,41,43,44},
	{1,2,3,4,5,6,8,9,10,11,12,13,14,17,18,19,20,21,22,23,24,25,26,27,28,29,30,31,32,33,34,35,36,37,38,39,40,41,42,43,44,45},
	{1,2,3,4,5,6,7,8,9,10,12,13,14,15,16,18,19,21,22,23,24,25,26,27,28,29,30,31,32,33,34,35,36,37,38,39,40,41,42,44,45},
	{1,2,3,4,5,6,7,8,9,10,12,13,14,15,16,18,19,21,22,23,24,25,26,27,28,29,30,31,32,33,34,35,36,37,38,39,40,41,42,44,45},
	{1,2,3,4,5,6,7,8,9,10,12,13,14,15,16,18,19,21,22,23,24,25,26,27,28,29,30,31,32,33,34,35,36,37,38,39,40,41,42,44,45},
	{1,3,5,6,7,8,9,10,11,12,13,14,15,16,17,19,20,21,22,23,24,25,27,28,29,30,31,33,34,35,36,37,38,39,40,41,43,44},
	{1,2,3,4,5,6,8,9,10,11,12,13,14,17,18,19,20,21,22,23,24,25,26,27,28,29,30,31,32,33,34,35,36,37,38,39,40,41,42,43,44,45},
	{1,2,3,4,5,6,7,8,9,10,12,13,14,15,16,18,19,21,22,23,24,25,26,27,28,29,30,31,32,33,34,35,36,37,38,39,40,41,42,44,45},
	{1,2,3,4,5,6,7,8,9,10,11,12,13,14,15,16,17,18,19,20,21,22,23,24,25,26,27,28,29,30,32,34,36,37,38,39,40,41,42,43,44,45},
	{1,2,3,4,5,6,7,8,9,10,11,12,13,14,15,16,17,18,19,20,21,22,23,24,25,26,27,28,29,30,32,34,36,37,38,39,40,41,42,43,44,45},
	{1,2,3,4,5,6,8,9,10,11,12,13,14,17,18,19,20,21,22,23,24,25,26,27,28,29,30,31,32,33,34,35,36,37,38,39,40,41,42,43,44,45},
	{1,2,3,4,5,6,7,8,9,10,12,13,14,15,16,18,19,21,22,23,24,25,26,27,28,29,30,31,32,33,34,35,36,37,38,39,40,41,42,44,45},
	{1,2,3,4,5,6,7,8,9,10,11,12,13,14,15,16,17,18,19,20,21,22,23,24,25,26,27,28,29,30,32,34,36,37,38,39,40,41,42,43,44,45},
	{1,2,3,4,5,6,8,9,10,11,12,13,14,17,18,19,20,21,22,23,24,25,26,27,28,29,30,31,32,33,34,35,36,37,38,39,40,41,42,43,44,45},
	{}];

POTENTIAL_ACT = [{2,3,4,5,6,7,8,9,10,11,12,13,14,15,16,17,18,19,20,21,22,23,24,25,26,27,28,29,30,31,32,33,34,35,36,37,38,39,40,41},
	{2,3,4,5,7,8,9,11,12,13,14,15,16,17,18,19,20,22,24,25,26,27,29,30,31,32,34,35,36,37,38,39,40,41},
	{2,3,4,5,6,7,8,9,10,11,12,13,14,15,16,17,18,19,20,21,22,23,24,25,26,27,28,29,30,31,32,33,34,35,36,37,38,39,40,41},
	{2,3,4,5,7,8,9,11,12,13,14,15,16,17,18,19,20,22,24,25,26,27,29,30,31,32,34,35,36,37,38,39,40,41},
	{2,3,4,5,6,7,8,9,10,11,12,13,14,15,16,17,18,19,20,21,22,23,24,25,26,27,28,29,30,31,32,33,34,35,36,37,38,39,40,41},
	{2,3,4,5,6,7,8,9,10,11,12,13,14,15,16,17,18,19,20,21,22,23,24,25,26,27,28,29,30,31,32,33,34,35,36,37,38,39,40,41},
	{3,6,8,9,10,11,12,14,15,16,17,18,19,21,22,23,24,25,26,27,28,30,31,32,33,35,36,37,39,40},
	{2,3,4,5,6,7,8,9,10,11,12,13,14,15,16,17,18,19,20,21,22,23,24,25,26,27,28,29,30,31,32,33,34,35,36,37,38,39,40,41},
	{2,3,4,5,6,7,8,9,10,11,12,13,14,15,16,17,18,19,20,21,22,23,24,25,26,27,28,29,30,31,32,33,34,35,36,37,38,39,40,41},
	{2,3,4,5,6,7,8,9,10,11,12,13,14,15,16,17,18,19,20,21,22,23,24,25,26,27,28,29,30,31,32,33,34,35,36,37,38,39,40,41},
	{2,3,4,5,6,7,8,10,13,18,19,20,21,23,24,25,26,28,29,33,34,36,37,38,40,41},
	{2,3,4,5,6,7,8,9,10,11,12,13,14,15,16,17,18,19,20,21,22,23,24,25,26,27,28,29,30,31,32,33,34,35,36,37,38,39,40,41},
	{2,3,4,5,6,7,8,9,10,11,12,13,14,15,16,17,18,19,20,21,22,23,24,25,26,27,28,29,30,31,32,33,34,35,36,37,38,39,40,41},
	{2,3,4,5,6,7,8,9,10,11,12,13,14,15,16,17,18,19,20,21,22,23,24,25,26,27,28,29,30,31,32,33,34,35,36,37,38,39,40,41},
	{3,6,8,9,10,11,12,14,15,16,17,18,19,21,22,23,24,25,26,27,28,30,31,32,33,35,36,37,39,40},
	{3,6,8,9,10,11,12,14,15,16,17,18,19,21,22,23,24,25,26,27,28,30,31,32,33,35,36,37,39,40},
	{2,3,4,5,6,7,8,10,13,18,19,20,21,23,24,25,26,28,29,33,34,36,37,38,40,41},
	{2,3,4,5,7,8,9,11,12,13,14,15,16,17,18,19,20,22,24,25,26,27,29,30,31,32,34,35,36,37,38,39,40,41},
	{2,3,4,5,6,7,8,9,10,11,12,13,14,15,16,17,18,19,20,21,22,23,24,25,26,27,28,29,30,31,32,33,34,35,36,37,38,39,40,41},
	{2,3,4,5,6,7,8,10,13,18,19,20,21,23,24,25,26,28,29,33,34,36,37,38,40,41},
	{2,3,4,5,6,7,8,9,10,11,12,13,14,15,16,17,18,19,20,21,22,23,24,25,26,27,28,29,30,31,32,33,34,35,36,37,38,39,40,41},
	{2,3,4,5,6,7,8,9,10,11,12,13,14,15,16,17,18,19,20,21,22,23,24,25,26,27,28,29,30,31,32,33,34,35,36,37,38,39,40,41},
	{2,3,4,5,6,7,8,9,10,11,12,13,14,15,16,17,18,19,20,21,22,23,24,25,26,27,28,29,30,31,32,33,34,35,36,37,38,39,40,41},
	{2,3,4,5,6,7,8,9,10,11,12,13,14,15,16,17,18,19,20,21,22,23,24,25,26,27,28,29,30,31,32,33,34,35,36,37,38,39,40,41},
	{2,3,4,5,6,7,8,9,10,11,12,13,14,15,16,17,18,19,20,21,22,23,24,25,26,27,28,29,30,31,32,33,34,35,36,37,38,39,40,41},
	{2,3,4,5,7,8,9,11,12,13,14,15,16,17,18,19,20,22,24,25,26,27,29,30,31,32,34,35,36,37,38,39,40,41},
	{2,3,4,5,6,7,8,9,10,11,12,13,14,15,16,17,18,19,20,21,22,23,24,25,26,27,28,29,30,31,32,33,34,35,36,37,38,39,40,41},
	{2,3,4,5,6,7,8,9,10,11,12,13,14,15,16,17,18,19,20,21,22,23,24,25,26,27,28,29,30,31,32,33,34,35,36,37,38,39,40,41},
	{2,3,4,5,6,7,8,9,10,11,12,13,14,15,16,17,18,19,20,21,22,23,24,25,26,27,28,29,30,31,32,33,34,35,36,37,38,39,40,41},
	{2,3,4,5,6,7,8,9,10,11,12,13,14,15,16,17,18,19,20,21,22,23,24,25,26,27,28,29,30,31,32,33,34,35,36,37,38,39,40,41},
	{2,4,5,6,7,9,10,11,12,13,14,15,16,17,20,21,22,23,27,28,29,30,31,32,33,34,35,38,39,41},
	{2,3,4,5,7,8,9,11,12,13,14,15,16,17,18,19,20,22,24,25,26,27,29,30,31,32,34,35,36,37,38,39,40,41},
	{2,4,5,6,7,9,10,11,12,13,14,15,16,17,20,21,22,23,27,28,29,30,31,32,33,34,35,38,39,41},
	{2,3,4,5,6,7,8,9,10,11,12,13,14,15,16,17,18,19,20,21,22,23,24,25,26,27,28,29,30,31,32,33,34,35,36,37,38,39,40,41},
	{2,4,5,6,7,9,10,11,12,13,14,15,16,17,20,21,22,23,27,28,29,30,31,32,33,34,35,38,39,41},
	{2,3,4,5,6,7,8,9,10,11,12,13,14,15,16,17,18,19,20,21,22,23,24,25,26,27,28,29,30,31,32,33,34,35,36,37,38,39,40,41},
	{2,3,4,5,6,7,8,9,10,11,12,13,14,15,16,17,18,19,20,21,22,23,24,25,26,27,28,29,30,31,32,33,34,35,36,37,38,39,40,41},
	{2,3,4,5,6,7,8,9,10,11,12,13,14,15,16,17,18,19,20,21,22,23,24,25,26,27,28,29,30,31,32,33,34,35,36,37,38,39,40,41},
	{2,3,4,5,6,7,8,9,10,11,12,13,14,15,16,17,18,19,20,21,22,23,24,25,26,27,28,29,30,31,32,33,34,35,36,37,38,39,40,41},
	{2,3,4,5,6,7,8,9,10,11,12,13,14,15,16,17,18,19,20,21,22,23,24,25,26,27,28,29,30,31,32,33,34,35,36,37,38,39,40,41},
	{2,3,4,5,6,7,8,9,10,11,12,13,14,15,16,17,18,19,20,21,22,23,24,25,26,27,28,29,30,31,32,33,34,35,36,37,38,39,40,41},
	{2,3,4,5,7,8,9,11,12,13,14,15,16,17,18,19,20,22,24,25,26,27,29,30,31,32,34,35,36,37,38,39,40,41},
	{2,3,4,5,6,7,8,10,13,18,19,20,21,23,24,25,26,28,29,33,34,36,37,38,40,41},
	{2,3,4,5,6,7,8,9,10,11,12,13,14,15,16,17,18,19,20,21,22,23,24,25,26,27,28,29,30,31,32,33,34,35,36,37,38,39,40,41},
	{2,3,4,5,7,8,9,11,12,13,14,15,16,17,18,19,20,22,24,25,26,27,29,30,31,32,34,35,36,37,38,39,40,41}];
